(set-logic ALL)
(set-option :produce-models true)
(declare-sort BoundSet 0)
(declare-sort UnboundSet 0)
(declare-fun IsBanned (BoundSet) Bool)
(declare-fun IsBadFor (BoundSet) Bool)
(declare-fun WillBeBanned (BoundSet) Bool)
(assert (not (=> (and (exists ((b BoundSet)) (exists ((a BoundSet)) (and (IsBanned a) (IsBadFor b)))) (forall ((e BoundSet)) (forall ((f BoundSet)) (=> (WillBeBanned e) (IsBadFor f))))) (exists ((c BoundSet)) (WillBeBanned c)))))
(check-sat)
(get-model)